f2_l-d_kp_20_878
n 20
c 878
z 1024
time
1,44, 92, 0
2,46, 4, 0
3,90, 43, 0
4,72, 83, 0
5,91, 84, 0
6,40, 68, 0
7,75, 92, 0
8,35, 82, 0
9,8 ,6, 0
10,54, 44, 0
11,78, 32, 0
12,40, 18, 0
13,77, 56, 0
14,15, 83, 0
15,61, 25, 0
16,17, 96, 0
17,75, 70, 0
18,29, 48, 0
19,75, 14, 0
20,63, 58, 0
-------------
